s td 338 8 370
b 1 8 45 269
b 2 25 138 312
b 3 6 34 171
b 4 6 171 286
b 5 40 111 136
b 6 48 250 343
b 7 32 49 154
b 8 50 297 331
b 9 57 99 249
b 10 60 305 369
b 11 24 62 351
b 12 81 195 234
b 13 16 85 362
b 14 86 91 151
b 15 92 130 198
b 16 93 166 278
b 17 29 71 100
b 18 102 229 279
b 19 76 106 340
b 20 67 129 335
b 21 107 132 306
b 22 148 259 290
b 23 150 237 246
b 24 32 321
b 25 18 162 317
b 26 3 103 169
b 27 186 209 314
b 28 9 96 197
b 29 198 333
b 30 134 174 201
b 31 30 211 304
b 32 78 204 233
b 33 195 231
b 34 99 210
b 35 172 267 345
b 36 152 220 268
b 37 29 284 302
b 38 37 286
b 39 37 311 347
b 40 113 290
b 41 187 272 291
b 42 157 187 272
b 43 95 157 272
b 44 95 321
b 45 120 299 329
b 46 107 218
b 47 135 203 309
b 48 181 239 318
b 49 53 343
b 50 161 224 361
b 51 110 330 365
b 52 51 329 367
b 53 3 103 199
b 54 2 7 212 316
b 55 9 75 96
b 56 16 285 362
b 57 24 203 351
b 58 29 71 302
b 59 30 145 304
b 60 4 41 113 133
b 61 4 113 114
b 62 45 269 346
b 63 51 86 329
b 64 61 83 173 350
b 65 67 335 366
b 66 71 142 302
b 67 63 76 340
b 68 86 151 329
b 69 103 199 370
b 70 109 165 292
b 71 165 241 292
b 72 110 314 330
b 73 209 314 330
b 74 314 330
b 75 314 366
b 76 111 136 244
b 77 136 244 359
b 78 113 114 264
b 79 54 114 264 320
b 80 54 264 364
b 81 31 120 329
b 82 135 203 277
b 83 203 277 351
b 84 64 138 312
b 85 5 151 329
b 86 123 152 220
b 87 161 224 265
b 88 166 270 278
b 89 270 278 322
b 90 116 173 350
b 91 43 181 239
b 92 145 155 185 208
b 93 145 155 304
b 94 304 333
b 95 69 333
b 96 69 246 348
b 97 78 158 204
b 98 210 226 347
b 99 218 258 269
b 100 175 258 269 346
b 101 258 269 346
b 102 258 288 346
b 103 224 265 360
b 104 229 274 279
b 105 168 274 279
b 106 168 243 274
b 107 231 321 325
b 108 237 246 364
b 109 43 225 239
b 110 149 241 292
b 111 108 149 292
b 112 90 108 149
b 113 90 346
b 114 288 346
b 115 236 243 274
b 116 215 244 359
b 117 246 348 364
b 118 1 39 127 251
b 119 63 253 327
b 120 126 264 364
b 121 270 322 339
b 122 236 274 325
b 123 17 27 281 283
b 124 123 220 287 296
b 125 199 297 331
b 126 199 331 370
b 127 199 370
b 128 199 288
b 129 84 288 345
b 130 104 142 302
b 131 265 305 369
b 132 311 335 347
b 133 64 213 312
b 134 235 321 325
b 135 15 322 339
b 136 63 189 327
b 137 5 31 329
b 138 335 347 366
b 139 31 63 340
b 140 84 172 345
b 141 84 172 235 289
b 142 84 141 235
b 143 226 347 366
b 144 177 226 366
b 145 43 177 226
b 146 43 226 262
b 147 74 116 350
b 148 126 277 351
b 149 5 126 219 277
b 150 5 126 277
b 151 5 31 126
b 152 31 126 364
b 153 31 63 348 364
b 154 63 348 364
b 155 63 189 364
b 156 215 257 359
b 157 104 285 362
b 158 189 212 364
b 159 66 265 369
b 160 1 39 127 273
b 161 39 127 205 273
b 162 12 23 176 225
b 163 2 140 167 178 263 357 360 363
b 164 140 167 178 227 252 357 360 363
b 165 178 227 252 326 360 363
b 166 15 252 255 326 360 363
b 167 15 88 117 255 360 363
b 168 15 66 88 117 360 363
b 169 15 66 88 117 205 360
b 170 15 66 88 117 202 205
b 171 10 15 21 117 202 205
b 172 10 21 117 202 257
b 173 10 20 21 202 257
b 174 20 202 248 257
b 175 20 21 257 260
b 176 10 15 21 117 205 238
b 177 15 21 58 117 238
b 178 66 74 88 202 205
b 179 74 116 202 205
b 180 74 88 202 300
b 181 66 88 98 363
b 182 15 55 117 255
b 183 88 117 191 255
b 184 15 207 252 255 326 363
b 185 15 207 252 255 326 334
b 186 179 207 252 326 334 358
b 187 18 179 193 207 334 358
b 188 18 193 207 334 337
b 189 18 261 285 334 337
b 190 18 261 285 332 337
b 191 11 261 285 332 337
b 192 18 285 328 332 337
b 193 18 142 285 328 332
b 194 104 142 285 332
b 195 313 328 332 337
b 196 89 256 261 285 334
b 197 65 89 256 261 285
b 198 65 89 256 261 349
b 199 59 89 256 349
b 200 65 89 131 261 349
b 201 65 196 256 349
b 202 89 240 256 261 334
b 203 89 184 240 261 334
b 204 18 139 179 193 358
b 205 18 139 193 245
b 206 18 139 164 245
b 207 139 144 164 245
b 208 128 139 144 164
b 209 22 128 139 144
b 210 18 164 245 287
b 211 18 123 164 287
b 212 18 123 220 287
b 213 123 164 271 287
b 214 121 139 179 193 358
b 215 121 139 179 338
b 216 82 121 179 338
b 217 139 179 180 338
b 218 121 139 194 338
b 219 193 207 222 358
b 220 179 252 326 358 368
b 221 179 308 326 358 368
b 222 56 179 308 368
b 223 308 315 326 358 368
b 224 147 308 315 326 368
b 225 15 207 255 334 339
b 226 207 255 280 334 339
b 227 77 255 280 339
b 228 70 77 280 339
b 229 38 70 77 280
b 230 280 334 339 356
b 231 178 227 326 341
b 232 188 227 326 341
b 233 140 167 178 227 252 354 357
b 234 122 140 167 227 252 354 357
b 235 33 122 140 227 252 354 357
b 236 14 33 122 227 252 354 357
b 237 14 33 101 227 252 354
b 238 33 101 227 252 276 354
b 239 33 101 276 298 354
b 240 101 112 276 298 354
b 241 47 101 112 298
b 242 112 298 301 354
b 243 101 214 227 252 276
b 244 101 124 214 227 252
b 245 101 124 214 242
b 246 124 214 227 344
b 247 221 227 276 354
b 248 14 33 94 122 357
b 249 14 94 303 357
b 250 14 216 252 357
b 251 33 42 122 140 354
b 252 42 105 140 354
b 253 2 13 140 167 263 357 360
b 254 2 13 43 140 167 263 360
b 255 2 13 43 140 167 192 263
b 256 2 13 43 143 167 192 263
b 257 2 13 43 143 192 263 295
b 258 2 43 143 192 228 263 295
b 259 2 43 192 225 228 263 295
b 260 2 192 225 228 263 282
b 261 2 225 228 263 266 282
b 262 2 213 263 266 282
b 263 2 213 266 282 307
b 264 2 213 266 283 307
b 265 2 183 213 283 307
b 266 2 17 183 213 283
b 267 266 282 307 323
b 268 2 64 213 263
b 269 176 225 228 266 282
b 270 23 176 225 266
b 271 192 228 282 294
b 272 143 228 295 353
b 273 13 43 125 143 295
b 274 13 43 125 156 295
b 275 13 43 125 156 254
b 276 13 97 125 156 254
b 277 13 97 156 159 254
b 278 97 156 159 247 254
b 279 68 159 247 254
b 280 13 75 97 159 254
b 281 13 75 97 153
b 282 75 159 182 254
b 283 43 156 158 254
b 284 43 78 156 158
b 285 43 125 156 295 319
b 286 43 156 223 319
b 287 13 143 163 167 192
b 288 13 28 143 163
b 289 2 43 262 360
b 290 13 167 174 357
b 291 2 170 178 263 363
b 292 2 170 324 363
b 293 170 178 342 363
b 294 26 128 144 160
b 295 22 128 144 160
b 296 17 27 183 283
b 297 35 313 332 337
b 298 36 78 156 158
b 299 44 147 315 326
b 300 46 141 235 316
b 301 52 159 182 254
b 302 53 184 240 334
b 303 72 179 200 352
b 304 70 73 77 80
b 305 38 70 77 80
b 306 13 79 96 230
b 307 87 141 232 262
b 308 141 232 262 316
b 309 141 235 262 316
b 310 212 235 262 316
b 311 13 75 96 230
b 312 13 75 153 230
b 313 115 164 271 287
b 314 19 118 119 190
b 315 19 119 190 236
b 316 19 119 236 310
b 317 119 189 236 310
b 318 189 236 310 325
b 319 189 212 325
b 320 212 235 325
b 321 2 212 262 316
b 322 13 134 174 357
b 323 137 142 317 328
b 324 18 142 317 328
b 325 10 39 146 355
b 326 10 39 205 273
b 327 10 39 205 355
b 328 56 179 200 352
b 329 56 179 308 352
b 330 206 217 275 326
b 331 2 212 262 360
b 332 202 215 248 257
b 333 217 275 326 341
b 334 188 275 326 341
b 335 66 205 265 360
b 336 15 58 238 293
b 337 11 261 336 337
b 338 10 205 238 355
1 62
2 84
3 4
4 38
5 76
6 49
7 24
8 125
9 34
10 131
11 57
12 33
13 56
14 68
15 29
16 88
17 58
18 104
19 67
20 65
21 46
22 40
23 108
24 134
25 324
26 53
27 73
28 55
29 95
30 322
31 59
32 97
33 107
34 98
35 140
36 86
37 58
38 39
39 132
40 78
41 42
42 43
43 44
44 134
45 81
46 99
47 82
48 91
49 302
50 87
51 72
52 63
53 69
54 321
55 311
56 157
57 83
58 66
59 93
60 61
61 78
62 101
63 68
64 90
65 138
66 130
67 139
68 85
69 127
70 71
71 110
72 74
73 74
74 75
75 144
76 77
77 116
78 79
79 80
80 120
81 137
82 83
83 148
84 133
85 137
86 212
87 103
88 89
89 121
90 147
91 109
92 93
93 94
94 95
95 96
96 117
97 284
98 143
99 101
100 101
101 102
102 114
103 335
104 105
105 106
106 115
107 134
108 117
109 259
110 111
111 112
112 113
113 114
114 129
115 122
116 156
117 154
118 160
119 136
120 152
121 135
122 318
123 296
124 212
125 126
126 127
127 128
128 129
129 140
130 194
131 159
132 138
133 268
134 320
135 225
136 155
137 151
138 143
139 153
140 141
141 142
142 309
143 144
144 145
145 146
146 289
147 179
148 150
149 150
150 151
151 152
152 153
153 154
154 155
155 158
156 332
157 194
158 319
159 335
160 161
161 326
162 270
163 164
163 253
163 291
164 165
164 233
165 166
165 231
166 167
166 184
167 168
167 182
167 183
168 169
168 181
169 335
169 170
170 171
170 178
171 172
171 176
172 173
173 174
173 175
174 332
176 338
176 177
177 336
178 179
178 180
184 185
185 186
185 225
186 187
186 220
187 188
187 204
187 219
188 189
189 190
189 196
190 191
190 192
191 337
192 193
192 195
193 324
193 194
195 297
196 197
196 202
197 198
198 199
198 200
198 201
202 203
203 302
204 205
204 214
205 206
206 207
206 210
207 208
208 209
209 295
210 211
211 212
211 213
213 313
214 215
215 216
215 217
215 218
220 221
221 222
221 223
222 329
223 224
224 299
225 226
226 227
226 230
227 228
228 229
229 305
231 232
232 334
233 234
234 235
235 236
235 251
236 237
236 248
236 250
237 238
238 239
238 243
238 247
239 240
240 241
240 242
243 244
244 245
244 246
248 249
251 252
253 254
253 290
254 255
254 289
255 256
256 257
256 287
257 258
257 273
258 259
258 272
259 260
260 261
260 271
261 262
261 269
262 263
262 268
263 264
263 267
264 265
265 266
266 296
269 270
273 274
274 275
274 285
275 276
275 283
276 277
277 278
277 280
278 279
280 281
280 282
281 312
282 301
283 284
284 298
285 286
287 288
289 331
290 322
291 292
291 293
294 295
300 309
303 328
304 305
306 311
307 308
308 309
309 310
310 320
310 321
311 312
314 315
315 316
316 317
317 318
318 319
319 320
321 331
323 324
325 327
326 327
327 338
328 329
330 333
333 334
